WARNING: for repeatability, setting FPU to use double precision
============================[ Problem Statistics ]=============================
|                                                                             |
|  Number of variables:           800                                         |
|  Number of clauses:           15200                                         |
|  Parse time:                   0.00 s                                       |
|                                                                             |
c ============================[ Search Statistics ]==============================
c | Conflicts |          ORIGINAL         |          LEARNT          | Progress |
c |           |    Vars  Clauses Literals |    Limit  Clauses Lit/Cl |          |
c ===============================================================================
c Switched to VSIDS.
c Switched to LRB.
c Switched to VSIDS.
c Switched to LRB.
c Switched to VSIDS.
c Switched to LRB.
c Switched to VSIDS.
c Switched to LRB.
c Switched to VSIDS.
c Switched to LRB.
c Switched to VSIDS.
c Switched to LRB.
c Switched to VSIDS.
c Switched to LRB.
c Switched to VSIDS.
c Switched to LRB.
c Switched to VSIDS.
c Switched to LRB.
c Switched to VSIDS.
c Switched to LRB.
c Switched to VSIDS.
c Switched to LRB.
c Switched to VSIDS.
c Switched to LRB.
c Switched to VSIDS.
c Switched to LRB.
c Switched to VSIDS.
c Switched to LRB.
c ===============================================================================
restarts                  : 19782
conflicts                 : 12399609       (3495 /sec)
decisions                 : 15308700       (0.00 % random) (4315 /sec)
propagations              : 4472469169     (1260599 /sec)
conflict literals         : 512832087      (41.14 % deleted)

conflicts w/ DIP found    : 7636920        (61.59 % of conflicts)
conflicts w/ dangerous DIP: 0              (0.00 % of conflicts)
conflicts w/ DIP-learning : 157373         (1.27 % of conflicts)
decisions on ext vars     : 17644          (0.12 % of decisions)
total ext vars            : 109695      
tried delete ext vars     : 109405      
deleted ext vars          : 109241      
max ext vars              : 4075        

Memory used               : 190.00 MB
CPU time                  : 3547.89 s
DIP computation time      : 82.7706 s (2.33 % of total time)
ER_sel time               : 12.87 s
ER_add time               : 0.338847 s
ER_delC time              : 0 s
ER_delV time              : 1.77699 s
ER_sub time               : 15.5479 s
ER_stat time              : 0 s

INDETERMINATE
